Maximize
F - f1 - f2

Subject to
F - 10.0y23 - 15.0y96 - 5.0y109 - 5.0y180 - 10.0y194 - 15.0y54 - 15.0y73 - 10.0y111 - 10.0y225 - 20.0y232 - 5.0y88 - 10.0y178 - 10.0y26 - 20.0y64 - 20.0y82 - 20.0y264 - 5.0y122 - 15.0y50 - 10.0y184 - 15.0y128 - 10.0y200 - 10.0y224 - 20.0y129 - 20.0y32 - 10.0y25 = 0
f1 - 0.004574s23 - 0.004574s96 - 0.004574s109 - 0.004574s180 - 0.004574s194 - 0.004574s54 - 0.004574s73 - 0.004574s111 - 0.004574s225 - 0.004574s232 - 0.004574s88 - 0.004574s178 - 0.004574s26 - 0.004574s64 - 0.004574s82 - 0.004574s264 - 0.004574s122 - 0.004574s50 - 0.004574s184 - 0.004574s128 - 0.004574s200 - 0.004574s224 - 0.004574s129 - 0.004574s32 - 0.004574s25  = 0
f2 - 2.64y23 - 0.60y96 - 2.81y109 - 0.55y180 - 0.19y194 - 0.32y54 - 0.24y73 - 0.45y111 - 0.08y225 - 0.62y232 - 0.11y88 - 0.32y178 - 0.01y26 - 0.04y64 - 0.12y82 - 0.02y264 - 0.31y122 - 0.70y50 - 0.30y184 - 0.87y128 - 1.07y200 - 0.09y224 - 0.01y129 - 0.04y32 - 0.44y25 = 0

x141x23x1 + x141x96x1 + x141x180x1 + x141x54x1 + x141x111x1 + x141x232x1 + x141x88x1 + x141x178x1 + x141x26x1 + x141x64x1 + x141x82x1 + x141x122x1 + x141x50x1 + x141x184x1 + x141x129x1 + x141x25x1 
<= 1
x14x23x1 + x14x96x1 + x14x180x1 + x14x54x1 + x14x111x1 + x14x232x1 + x14x88x1 + x14x178x1 + x14x26x1 + x14x64x1 + x14x82x1 + x14x122x1 + x14x50x1 + x14x184x1 + x14x129x1 + x14x25x1 
<= 2
x131x122x1 + x131x50x1 + x131x184x1 + x131x129x1 + x131x25x1 
<= 2
x183x50x2 + x183x200x2 + x183x32x2 
<= 1
x197x96x2 + x197x73x2 + x197x111x2 + x197x178x2 + x197x82x2 + x197x264x2 + x197x50x2 + x197x200x2 + x197x32x2 
<= 2
x261x50x2 + x261x200x2 + x261x32x2 
<= 2
x206x200x2 
<= 2
x183x122x3 + x183x128x3 + x183x200x3 + x183x224x3 + x183x129x3 + x183x32x3 + x183x25x3 
<= 1
x61x232x3 + x61x128x3 + x61x200x3 + x61x32x3 + x61x25x3 
<= 2

x141x23x1 + x14x23x1 
- x23x0x1

= 0



x141x96x1 + x14x96x1 
- x96x0x1
- x96x111x1 - x96x232x1 - x96x88x1 - x96x178x1 - x96x26x1 - x96x64x1 - x96x82x1 - x96x50x1 - x96x184x1 - x96x25x1 
= 0
x197x96x2 
- x96x0x2
- x96x111x2 - x96x178x2 - x96x82x2 - x96x264x2 - x96x50x2 - x96x200x2 - x96x32x2 
= 0





- x109x200x3 
= 0

x141x180x1 + x14x180x1 
- x180x0x1
- x180x111x1 - x180x232x1 - x180x88x1 - x180x178x1 - x180x26x1 - x180x64x1 - x180x82x1 - x180x50x1 - x180x184x1 - x180x25x1 
= 0


- x180x232x3 - x180x128x3 - x180x200x3 - x180x32x3 - x180x25x3 
= 0




- x194x225x3 - x194x128x3 - x194x200x3 - x194x32x3 - x194x25x3 
= 0

x141x54x1 + x14x54x1 
- x54x0x1
- x54x88x1 - x54x178x1 - x54x26x1 - x54x64x1 - x54x82x1 - x54x50x1 - x54x184x1 - x54x25x1 
= 0


- x54x128x3 - x54x200x3 - x54x25x3 
= 0


x197x73x2 
- x73x0x2
- x73x178x2 - x73x82x2 - x73x264x2 - x73x50x2 - x73x200x2 
= 0


x141x111x1 + x14x111x1 + x96x111x1 + x180x111x1 
- x111x0x1
- x111x178x1 - x111x26x1 - x111x64x1 - x111x82x1 - x111x50x1 - x111x184x1 - x111x25x1 
= 0
x197x111x2 + x96x111x2 
- x111x0x2
- x111x178x2 - x111x82x2 - x111x264x2 - x111x50x2 - x111x200x2 
= 0




x194x225x3 
- x225x0x3
- x225x128x3 - x225x200x3 - x225x25x3 
= 0

x141x232x1 + x14x232x1 + x96x232x1 + x180x232x1 
- x232x0x1
- x232x178x1 - x232x82x1 - x232x50x1 - x232x184x1 - x232x25x1 
= 0

x61x232x3 + x180x232x3 
- x232x0x3
- x232x128x3 - x232x200x3 - x232x25x3 
= 0

x141x88x1 + x14x88x1 + x96x88x1 + x180x88x1 + x54x88x1 
- x88x0x1
- x88x26x1 - x88x64x1 - x88x82x1 - x88x50x1 - x88x184x1 - x88x25x1 
= 0



x141x178x1 + x14x178x1 + x96x178x1 + x180x178x1 + x54x178x1 + x111x178x1 + x232x178x1 
- x178x0x1
- x178x82x1 - x178x50x1 - x178x184x1 - x178x25x1 
= 0
x197x178x2 + x96x178x2 + x73x178x2 + x111x178x2 
- x178x0x2
- x178x82x2 - x178x50x2 - x178x200x2 
= 0


x141x26x1 + x14x26x1 + x96x26x1 + x180x26x1 + x54x26x1 + x111x26x1 + x88x26x1 
- x26x0x1
- x26x64x1 - x26x184x1 - x26x25x1 
= 0



x141x64x1 + x14x64x1 + x96x64x1 + x180x64x1 + x54x64x1 + x111x64x1 + x88x64x1 + x26x64x1 
- x64x0x1
- x64x184x1 - x64x25x1 
= 0



x141x82x1 + x14x82x1 + x96x82x1 + x180x82x1 + x54x82x1 + x111x82x1 + x232x82x1 + x88x82x1 + x178x82x1 
- x82x0x1
- x82x184x1 - x82x25x1 
= 0
x197x82x2 + x96x82x2 + x73x82x2 + x111x82x2 + x178x82x2 
- x82x0x2
- x82x200x2 
= 0



x197x264x2 + x96x264x2 + x73x264x2 + x111x264x2 
- x264x0x2
- x264x200x2 
= 0


x141x122x1 + x14x122x1 + x131x122x1 
- x122x0x1
- x122x129x1 
= 0

x183x122x3 
- x122x0x3
- x122x224x3 - x122x129x3 - x122x32x3 
= 0

x141x50x1 + x14x50x1 + x131x50x1 + x96x50x1 + x180x50x1 + x54x50x1 + x111x50x1 + x232x50x1 + x88x50x1 + x178x50x1 
- x50x0x1
- x50x25x1 
= 0
x183x50x2 + x197x50x2 + x261x50x2 + x96x50x2 + x73x50x2 + x111x50x2 + x178x50x2 
- x50x0x2
- x50x200x2 
= 0


x141x184x1 + x14x184x1 + x131x184x1 + x96x184x1 + x180x184x1 + x54x184x1 + x111x184x1 + x232x184x1 + x88x184x1 + x178x184x1 + x26x184x1 + x64x184x1 + x82x184x1 
- x184x0x1
- x184x25x1 
= 0





x183x128x3 + x61x128x3 + x180x128x3 + x194x128x3 + x54x128x3 + x225x128x3 + x232x128x3 
- x128x0x3

= 0


x183x200x2 + x197x200x2 + x261x200x2 + x206x200x2 + x96x200x2 + x73x200x2 + x111x200x2 + x178x200x2 + x82x200x2 + x264x200x2 + x50x200x2 
- x200x0x2

= 0
x183x200x3 + x61x200x3 + x109x200x3 + x180x200x3 + x194x200x3 + x54x200x3 + x225x200x3 + x232x200x3 
- x200x0x3

= 0



x183x224x3 + x122x224x3 
- x224x0x3
- x224x32x3 
= 0

x141x129x1 + x14x129x1 + x131x129x1 + x122x129x1 
- x129x0x1

= 0

x183x129x3 + x122x129x3 
- x129x0x3
- x129x32x3 
= 0


x183x32x2 + x197x32x2 + x261x32x2 + x96x32x2 
- x32x0x2

= 0
x183x32x3 + x61x32x3 + x180x32x3 + x194x32x3 + x122x32x3 + x224x32x3 + x129x32x3 
- x32x0x3

= 0

x141x25x1 + x14x25x1 + x131x25x1 + x96x25x1 + x180x25x1 + x54x25x1 + x111x25x1 + x232x25x1 + x88x25x1 + x178x25x1 + x26x25x1 + x64x25x1 + x82x25x1 + x50x25x1 + x184x25x1 
- x25x0x1

= 0

x183x25x3 + x61x25x3 + x180x25x3 + x194x25x3 + x54x25x3 + x225x25x3 + x232x25x3 
- x25x0x3

= 0

2y23 - x141x23x1 - x14x23x1 = 0
1y96 - x141x96x1 - x14x96x1 = 0
1y96 - x197x96x2 = 0
2y109 = 0
1y180 - x141x180x1 - x14x180x1 = 0
1y180 = 0
2y194 = 0
1y54 - x141x54x1 - x14x54x1 = 0
1y54 = 0
2y73 - x197x73x2 = 0
1y111 - x141x111x1 - x14x111x1 - x96x111x1 - x180x111x1 = 0
1y111 - x197x111x2 - x96x111x2 = 0
2y225 - x194x225x3 = 0
1y232 - x141x232x1 - x14x232x1 - x96x232x1 - x180x232x1 = 0
1y232 - x61x232x3 - x180x232x3 = 0
2y88 - x141x88x1 - x14x88x1 - x96x88x1 - x180x88x1 - x54x88x1 = 0
1y178 - x141x178x1 - x14x178x1 - x96x178x1 - x180x178x1 - x54x178x1 - x111x178x1 - x232x178x1 = 0
1y178 - x197x178x2 - x96x178x2 - x73x178x2 - x111x178x2 = 0
2y26 - x141x26x1 - x14x26x1 - x96x26x1 - x180x26x1 - x54x26x1 - x111x26x1 - x88x26x1 = 0
2y64 - x141x64x1 - x14x64x1 - x96x64x1 - x180x64x1 - x54x64x1 - x111x64x1 - x88x64x1 - x26x64x1 = 0
1y82 - x141x82x1 - x14x82x1 - x96x82x1 - x180x82x1 - x54x82x1 - x111x82x1 - x232x82x1 - x88x82x1 - x178x82x1 = 0
1y82 - x197x82x2 - x96x82x2 - x73x82x2 - x111x82x2 - x178x82x2 = 0
2y264 - x197x264x2 - x96x264x2 - x73x264x2 - x111x264x2 = 0
1y122 - x141x122x1 - x14x122x1 - x131x122x1 = 0
1y122 - x183x122x3 = 0
1y50 - x141x50x1 - x14x50x1 - x131x50x1 - x96x50x1 - x180x50x1 - x54x50x1 - x111x50x1 - x232x50x1 - x88x50x1 - x178x50x1 = 0
1y50 - x183x50x2 - x197x50x2 - x261x50x2 - x96x50x2 - x73x50x2 - x111x50x2 - x178x50x2 = 0
2y184 - x141x184x1 - x14x184x1 - x131x184x1 - x96x184x1 - x180x184x1 - x54x184x1 - x111x184x1 - x232x184x1 - x88x184x1 - x178x184x1 - x26x184x1 - x64x184x1 - x82x184x1 = 0
2y128 - x183x128x3 - x61x128x3 - x180x128x3 - x194x128x3 - x54x128x3 - x225x128x3 - x232x128x3 = 0
1y200 - x183x200x2 - x197x200x2 - x261x200x2 - x206x200x2 - x96x200x2 - x73x200x2 - x111x200x2 - x178x200x2 - x82x200x2 - x264x200x2 - x50x200x2 = 0
1y200 - x183x200x3 - x61x200x3 - x109x200x3 - x180x200x3 - x194x200x3 - x54x200x3 - x225x200x3 - x232x200x3 = 0
2y224 - x183x224x3 - x122x224x3 = 0
1y129 - x141x129x1 - x14x129x1 - x131x129x1 - x122x129x1 = 0
1y129 - x183x129x3 - x122x129x3 = 0
1y32 - x183x32x2 - x197x32x2 - x261x32x2 - x96x32x2 = 0
1y32 - x183x32x3 - x61x32x3 - x180x32x3 - x194x32x3 - x122x32x3 - x224x32x3 - x129x32x3 = 0
1y25 - x141x25x1 - x14x25x1 - x131x25x1 - x96x25x1 - x180x25x1 - x54x25x1 - x111x25x1 - x232x25x1 - x88x25x1 - x178x25x1 - x26x25x1 - x64x25x1 - x82x25x1 - x50x25x1 - x184x25x1 = 0
1y25 - x183x25x3 - x61x25x3 - x180x25x3 - x194x25x3 - x54x25x3 - x225x25x3 - x232x25x3 = 0

s141 - s23 + 8.019510z141z23z1 <= 6.74
s141 - s96 + 8.261705z141z96z1 <= 6.74
s141 - s180 + 8.268068z141z180z1 <= 6.74
s141 - s54 + 8.294516z141z54z1 <= 6.74
s141 - s111 + 8.287851z141z111z1 <= 6.74
s141 - s232 + 8.269205z141z232z1 <= 6.74
s141 - s88 + 8.322400z141z88z1 <= 6.74
s141 - s178 + 8.314394z141z178z1 <= 6.74
s141 - s26 + 8.342834z141z26z1 <= 6.74
s141 - s64 + 8.350029z141z64z1 <= 6.74
s141 - s82 + 8.341355z141z82z1 <= 6.74
s141 - s122 + 8.143790z141z122z1 <= 6.74
s141 - s50 + 8.293511z141z50z1 <= 6.74
s141 - s184 + 8.348604z141z184z1 <= 6.74
s141 - s129 + 8.179707z141z129z1 <= 6.74
s141 - s25 + 8.444853z141z25z1 <= 6.74
s14 - s23 + 8.120342z14z23z1 <= 6.94
s14 - s96 + 8.424559z14z96z1 <= 6.94
s14 - s180 + 8.432187z14z180z1 <= 6.94
s14 - s54 + 8.464684z14z54z1 <= 6.94
s14 - s111 + 8.453014z14z111z1 <= 6.94
s14 - s232 + 8.429340z14z232z1 <= 6.94
s14 - s88 + 8.496842z14z88z1 <= 6.94
s14 - s178 + 8.480428z14z178z1 <= 6.94
s14 - s26 + 8.517877z14z26z1 <= 6.94
s14 - s64 + 8.526034z14z64z1 <= 6.94
s14 - s82 + 8.511702z14z82z1 <= 6.94
s14 - s122 + 8.417552z14z122z1 <= 6.94
s14 - s50 + 8.446051z14z50z1 <= 6.94
s14 - s184 + 8.509563z14z184z1 <= 6.94
s14 - s129 + 8.442885z14z129z1 <= 6.94
s14 - s25 + 8.621370z14z25z1 <= 6.94
s183 - s122 + 8.661743z183z122z3 <= 7.39
s183 - s50 + 8.773396z183z50z2 <= 7.39
s183 - s128 + 8.777773z183z128z3 <= 7.39
s183 - s200 + 8.761411z183z200z2 <= 7.39
s183 - s200 + 8.761411z183z200z3 <= 7.39
s183 - s224 + 8.662492z183z224z3 <= 7.39
s183 - s129 + 8.666692z183z129z3 <= 7.39
s183 - s32 + 8.673232z183z32z2 <= 7.39
s183 - s32 + 8.673232z183z32z3 <= 7.39
s183 - s25 + 8.888257z183z25z3 <= 7.39
s197 - s96 + 8.271690z197z96z2 <= 6.96
s197 - s73 + 8.304633z197z73z2 <= 6.96
s197 - s111 + 8.295364z197z111z2 <= 6.96
s197 - s178 + 8.320774z197z178z2 <= 6.96
s197 - s82 + 8.344898z197z82z2 <= 6.96
s197 - s264 + 8.351039z197z264z2 <= 6.96
s197 - s50 + 8.312383z197z50z2 <= 6.96
s197 - s200 + 8.293681z197z200z2 <= 6.96
s197 - s32 + 8.286862z197z32z2 <= 6.96
s131 - s122 + 8.701004z131z122z1 <= 7.42
s131 - s50 + 8.767000z131z50z1 <= 7.42
s131 - s184 + 8.806434z131z184z1 <= 7.42
s131 - s129 + 8.699428z131z129z1 <= 7.42
s131 - s25 + 8.884828z131z25z1 <= 7.42
s261 - s50 + 8.803492z261z50z2 <= 7.35
s261 - s200 + 8.748481z261z200z2 <= 7.35
s261 - s32 + 8.908973z261z32z2 <= 7.35
s206 - s200 + 8.843912z206z200z2 <= 7.64
s61 - s232 + 8.574219z61z232z3 <= 7.53
s61 - s128 + 8.626284z61z128z3 <= 7.53
s61 - s200 + 8.634552z61z200z3 <= 7.53
s61 - s32 + 8.987638z61z32z3 <= 7.53
s61 - s25 + 8.772181z61z25z3 <= 7.53
s96 - s111 + 9.599813z96z111z1 <= 8.57
s96 - s111 + 9.599813z96z111z2 <= 8.57
s96 - s232 + 9.584907z96z232z1 <= 8.57
s96 - s88 + 9.659691z96z88z1 <= 8.57
s96 - s178 + 9.626960z96z178z1 <= 8.57
s96 - s178 + 9.626960z96z178z2 <= 8.57
s96 - s26 + 9.678525z96z26z1 <= 8.57
s96 - s64 + 9.687945z96z64z1 <= 8.57
s96 - s82 + 9.662616z96z82z1 <= 8.57
s96 - s82 + 9.662616z96z82z2 <= 8.57
s96 - s264 + 9.679341z96z264z2 <= 8.57
s96 - s50 + 9.629628z96z50z1 <= 8.57
s96 - s50 + 9.629628z96z50z2 <= 8.57
s96 - s184 + 9.656922z96z184z1 <= 8.57
s96 - s200 + 9.678525z96z200z2 <= 8.57
s96 - s32 + 10.035952z96z32z2 <= 8.57
s96 - s25 + 9.775912z96z25z1 <= 8.57
s109 - s200 + 9.920872z109z200z3 <= 8.57
s180 - s111 + 9.591082z180z111z1 <= 8.57
s180 - s232 + 9.590000z180z232z1 <= 8.57
s180 - s232 + 9.590000z180z232z3 <= 8.57
s180 - s88 + 9.650277z180z88z1 <= 8.57
s180 - s178 + 9.618534z180z178z1 <= 8.57
s180 - s26 + 9.669106z180z26z1 <= 8.57
s180 - s64 + 9.678525z180z64z1 <= 8.57
s180 - s82 + 9.653533z180z82z1 <= 8.57
s180 - s50 + 9.633245z180z50z1 <= 8.57
s180 - s184 + 9.651103z180z184z1 <= 8.57
s180 - s128 + 9.663570z180z128z3 <= 8.57
s180 - s200 + 9.686428z180z200z3 <= 8.57
s180 - s32 + 10.034231z180z32z3 <= 8.57
s180 - s25 + 9.766864z180z25z1 <= 8.57
s180 - s25 + 9.766864z180z25z3 <= 8.57
s194 - s225 + 9.608856z194z225z3 <= 8.59
s194 - s128 + 9.745635z194z128z3 <= 8.59
s194 - s200 + 9.773424z194z200z3 <= 8.59
s194 - s32 + 10.028634z194z32z3 <= 8.59
s194 - s25 + 9.733913z194z25z3 <= 8.59
s54 - s88 + 9.637712z54z88z1 <= 8.60
s54 - s178 + 9.628284z54z178z1 <= 8.60
s54 - s26 + 9.657350z54z26z1 <= 8.60
s54 - s64 + 9.666667z54z64z1 <= 8.60
s54 - s82 + 9.647141z54z82z1 <= 8.60
s54 - s50 + 9.693571z54z50z1 <= 8.60
s54 - s184 + 9.670868z54z184z1 <= 8.60
s54 - s128 + 9.728236z54z128z3 <= 8.60
s54 - s200 + 9.756063z54z200z3 <= 8.60
s54 - s25 + 9.758465z54z25z1 <= 8.60
s54 - s25 + 9.758465z54z25z3 <= 8.60
s73 - s178 + 9.635901z73z178z2 <= 8.60
s73 - s82 + 9.640553z73z82z2 <= 8.60
s73 - s264 + 9.648535z73z264z2 <= 8.60
s73 - s50 + 9.707497z73z50z2 <= 8.60
s73 - s200 + 9.770881z73z200z2 <= 8.60
s111 - s178 + 9.647488z111z178z1 <= 8.62
s111 - s178 + 9.647488z111z178z2 <= 8.62
s111 - s26 + 9.700277z111z26z1 <= 8.62
s111 - s64 + 9.709691z111z64z1 <= 8.62
s111 - s82 + 9.682893z111z82z1 <= 8.62
s111 - s82 + 9.682893z111z82z2 <= 8.62
s111 - s264 + 9.700277z111z264z2 <= 8.62
s111 - s50 + 9.686666z111z50z1 <= 8.62
s111 - s50 + 9.686666z111z50z2 <= 8.62
s111 - s184 + 9.683246z111z184z1 <= 8.62
s111 - s200 + 9.748755z111z200z2 <= 8.62
s111 - s25 + 9.796131z111z25z1 <= 8.62
s225 - s128 + 9.801399z225z128z3 <= 8.63
s225 - s200 + 9.830555z225z200z3 <= 8.63
s225 - s25 + 9.758236z225z25z3 <= 8.63
s232 - s178 + 9.687349z232z178z1 <= 8.63
s232 - s82 + 9.724751z232z82z1 <= 8.63
s232 - s50 + 9.674722z232z50z1 <= 8.63
s232 - s184 + 9.710278z232z184z1 <= 8.63
s232 - s128 + 9.703636z232z128z3 <= 8.63
s232 - s200 + 9.727068z232z200z3 <= 8.63
s232 - s25 + 9.837096z232z25z1 <= 8.63
s232 - s25 + 9.837096z232z25z3 <= 8.63
s88 - s26 + 9.681082z88z26z1 <= 8.66
s88 - s64 + 9.689814z88z64z1 <= 8.66
s88 - s82 + 9.688284z88z82z1 <= 8.66
s88 - s50 + 9.784544z88z50z1 <= 8.66
s88 - s184 + 9.738031z88z184z1 <= 8.66
s88 - s25 + 9.784544z88z25z1 <= 8.66
s178 - s82 + 9.737712z178z82z1 <= 8.70
s178 - s82 + 9.737712z178z82z2 <= 8.70
s178 - s50 + 9.778031z178z50z1 <= 8.70
s178 - s50 + 9.778031z178z50z2 <= 8.70
s178 - s184 + 9.742687z178z184z1 <= 8.70
s178 - s200 + 9.846363z178z200z2 <= 8.70
s178 - s25 + 9.849814z178z25z1 <= 8.70
s26 - s64 + 9.729428z26z64z1 <= 8.72
s26 - s184 + 9.800278z26z184z1 <= 8.72
s26 - s25 + 9.823495z26z25z1 <= 8.72
s64 - s184 + 9.826667z64z184z1 <= 8.74
s64 - s25 + 9.835452z64z25z1 <= 8.74
s82 - s184 + 9.793748z82z184z1 <= 8.74
s82 - s200 + 9.923060z82z200z2 <= 8.74
s82 - s25 + 9.853333z82z25z1 <= 8.74
s264 - s200 + 9.943524z264z200z2 <= 8.74
s122 - s224 + 9.890884z122z224z3 <= 8.79
s122 - s129 + 9.856667z122z129z1 <= 8.79
s122 - s129 + 9.856667z122z129z3 <= 8.79
s122 - s32 + 9.856999z122z32z3 <= 8.79
s50 - s200 + 9.900867z50z200z2 <= 8.83
s50 - s25 + 10.046846z50z25z1 <= 8.83
s184 - s25 + 10.011735z184z25z1 <= 8.87
s224 - s32 + 9.988873z224z32z3 <= 8.95
s129 - s32 + 9.986666z129z32z3 <= 8.98

x141x23x1 - 2z141z23z1 <= 0
x141x96x1 - 1z141z96z1 <= 0
x141x180x1 - 1z141z180z1 <= 0
x141x54x1 - 1z141z54z1 <= 0
x141x111x1 - 1z141z111z1 <= 0
x141x232x1 - 1z141z232z1 <= 0
x141x88x1 - 2z141z88z1 <= 0
x141x178x1 - 1z141z178z1 <= 0
x141x26x1 - 2z141z26z1 <= 0
x141x64x1 - 2z141z64z1 <= 0
x141x82x1 - 1z141z82z1 <= 0
x141x122x1 - 1z141z122z1 <= 0
x141x50x1 - 1z141z50z1 <= 0
x141x184x1 - 2z141z184z1 <= 0
x141x129x1 - 1z141z129z1 <= 0
x141x25x1 - 1z141z25z1 <= 0
x14x23x1 - 2z14z23z1 <= 0
x14x96x1 - 1z14z96z1 <= 0
x14x180x1 - 1z14z180z1 <= 0
x14x54x1 - 1z14z54z1 <= 0
x14x111x1 - 1z14z111z1 <= 0
x14x232x1 - 1z14z232z1 <= 0
x14x88x1 - 2z14z88z1 <= 0
x14x178x1 - 1z14z178z1 <= 0
x14x26x1 - 2z14z26z1 <= 0
x14x64x1 - 2z14z64z1 <= 0
x14x82x1 - 1z14z82z1 <= 0
x14x122x1 - 1z14z122z1 <= 0
x14x50x1 - 1z14z50z1 <= 0
x14x184x1 - 2z14z184z1 <= 0
x14x129x1 - 1z14z129z1 <= 0
x14x25x1 - 1z14z25z1 <= 0
x183x122x3 - 1z183z122z3 <= 0
x183x50x2 - 1z183z50z2 <= 0
x183x128x3 - 2z183z128z3 <= 0
x183x200x2 - 1z183z200z2 <= 0
x183x200x3 - 1z183z200z3 <= 0
x183x224x3 - 2z183z224z3 <= 0
x183x129x3 - 1z183z129z3 <= 0
x183x32x2 - 1z183z32z2 <= 0
x183x32x3 - 1z183z32z3 <= 0
x183x25x3 - 1z183z25z3 <= 0
x197x96x2 - 1z197z96z2 <= 0
x197x73x2 - 2z197z73z2 <= 0
x197x111x2 - 1z197z111z2 <= 0
x197x178x2 - 1z197z178z2 <= 0
x197x82x2 - 1z197z82z2 <= 0
x197x264x2 - 2z197z264z2 <= 0
x197x50x2 - 1z197z50z2 <= 0
x197x200x2 - 1z197z200z2 <= 0
x197x32x2 - 1z197z32z2 <= 0
x131x122x1 - 1z131z122z1 <= 0
x131x50x1 - 1z131z50z1 <= 0
x131x184x1 - 2z131z184z1 <= 0
x131x129x1 - 1z131z129z1 <= 0
x131x25x1 - 1z131z25z1 <= 0
x261x50x2 - 1z261z50z2 <= 0
x261x200x2 - 1z261z200z2 <= 0
x261x32x2 - 1z261z32z2 <= 0
x206x200x2 - 1z206z200z2 <= 0
x61x232x3 - 1z61z232z3 <= 0
x61x128x3 - 2z61z128z3 <= 0
x61x200x3 - 1z61z200z3 <= 0
x61x32x3 - 1z61z32z3 <= 0
x61x25x3 - 1z61z25z3 <= 0
x23x0x1 <= 2
x96x111x1 - 1z96z111z1 <= 0
x96x111x2 - 1z96z111z2 <= 0
x96x232x1 - 1z96z232z1 <= 0
x96x88x1 - 2z96z88z1 <= 0
x96x178x1 - 1z96z178z1 <= 0
x96x178x2 - 1z96z178z2 <= 0
x96x26x1 - 2z96z26z1 <= 0
x96x64x1 - 2z96z64z1 <= 0
x96x82x1 - 1z96z82z1 <= 0
x96x82x2 - 1z96z82z2 <= 0
x96x264x2 - 2z96z264z2 <= 0
x96x50x1 - 1z96z50z1 <= 0
x96x50x2 - 1z96z50z2 <= 0
x96x184x1 - 2z96z184z1 <= 0
x96x200x2 - 1z96z200z2 <= 0
x96x32x2 - 1z96z32z2 <= 0
x96x25x1 - 1z96z25z1 <= 0
x96x0x1 <= 1
x96x0x2 <= 1
x109x200x3 - 1z109z200z3 <= 0
x109x0x3 <= 2
x180x111x1 - 1z180z111z1 <= 0
x180x232x1 - 1z180z232z1 <= 0
x180x232x3 - 1z180z232z3 <= 0
x180x88x1 - 2z180z88z1 <= 0
x180x178x1 - 1z180z178z1 <= 0
x180x26x1 - 2z180z26z1 <= 0
x180x64x1 - 2z180z64z1 <= 0
x180x82x1 - 1z180z82z1 <= 0
x180x50x1 - 1z180z50z1 <= 0
x180x184x1 - 2z180z184z1 <= 0
x180x128x3 - 2z180z128z3 <= 0
x180x200x3 - 1z180z200z3 <= 0
x180x32x3 - 1z180z32z3 <= 0
x180x25x1 - 1z180z25z1 <= 0
x180x25x3 - 1z180z25z3 <= 0
x180x0x1 <= 1
x180x0x3 <= 1
x194x225x3 - 2z194z225z3 <= 0
x194x128x3 - 2z194z128z3 <= 0
x194x200x3 - 1z194z200z3 <= 0
x194x32x3 - 1z194z32z3 <= 0
x194x25x3 - 1z194z25z3 <= 0
x194x0x3 <= 2
x54x88x1 - 2z54z88z1 <= 0
x54x178x1 - 1z54z178z1 <= 0
x54x26x1 - 2z54z26z1 <= 0
x54x64x1 - 2z54z64z1 <= 0
x54x82x1 - 1z54z82z1 <= 0
x54x50x1 - 1z54z50z1 <= 0
x54x184x1 - 2z54z184z1 <= 0
x54x128x3 - 2z54z128z3 <= 0
x54x200x3 - 1z54z200z3 <= 0
x54x25x1 - 1z54z25z1 <= 0
x54x25x3 - 1z54z25z3 <= 0
x54x0x1 <= 1
x54x0x3 <= 1
x73x178x2 - 1z73z178z2 <= 0
x73x82x2 - 1z73z82z2 <= 0
x73x264x2 - 2z73z264z2 <= 0
x73x50x2 - 1z73z50z2 <= 0
x73x200x2 - 1z73z200z2 <= 0
x73x0x2 <= 2
x111x178x1 - 1z111z178z1 <= 0
x111x178x2 - 1z111z178z2 <= 0
x111x26x1 - 2z111z26z1 <= 0
x111x64x1 - 2z111z64z1 <= 0
x111x82x1 - 1z111z82z1 <= 0
x111x82x2 - 1z111z82z2 <= 0
x111x264x2 - 2z111z264z2 <= 0
x111x50x1 - 1z111z50z1 <= 0
x111x50x2 - 1z111z50z2 <= 0
x111x184x1 - 2z111z184z1 <= 0
x111x200x2 - 1z111z200z2 <= 0
x111x25x1 - 1z111z25z1 <= 0
x111x0x1 <= 1
x111x0x2 <= 1
x225x128x3 - 2z225z128z3 <= 0
x225x200x3 - 1z225z200z3 <= 0
x225x25x3 - 1z225z25z3 <= 0
x225x0x3 <= 2
x232x178x1 - 1z232z178z1 <= 0
x232x82x1 - 1z232z82z1 <= 0
x232x50x1 - 1z232z50z1 <= 0
x232x184x1 - 2z232z184z1 <= 0
x232x128x3 - 2z232z128z3 <= 0
x232x200x3 - 1z232z200z3 <= 0
x232x25x1 - 1z232z25z1 <= 0
x232x25x3 - 1z232z25z3 <= 0
x232x0x1 <= 1
x232x0x3 <= 1
x88x26x1 - 2z88z26z1 <= 0
x88x64x1 - 2z88z64z1 <= 0
x88x82x1 - 1z88z82z1 <= 0
x88x50x1 - 1z88z50z1 <= 0
x88x184x1 - 2z88z184z1 <= 0
x88x25x1 - 1z88z25z1 <= 0
x88x0x1 <= 2
x178x82x1 - 1z178z82z1 <= 0
x178x82x2 - 1z178z82z2 <= 0
x178x50x1 - 1z178z50z1 <= 0
x178x50x2 - 1z178z50z2 <= 0
x178x184x1 - 2z178z184z1 <= 0
x178x200x2 - 1z178z200z2 <= 0
x178x25x1 - 1z178z25z1 <= 0
x178x0x1 <= 1
x178x0x2 <= 1
x26x64x1 - 2z26z64z1 <= 0
x26x184x1 - 2z26z184z1 <= 0
x26x25x1 - 1z26z25z1 <= 0
x26x0x1 <= 2
x64x184x1 - 2z64z184z1 <= 0
x64x25x1 - 1z64z25z1 <= 0
x64x0x1 <= 2
x82x184x1 - 2z82z184z1 <= 0
x82x200x2 - 1z82z200z2 <= 0
x82x25x1 - 1z82z25z1 <= 0
x82x0x1 <= 1
x82x0x2 <= 1
x264x200x2 - 1z264z200z2 <= 0
x264x0x2 <= 2
x122x224x3 - 2z122z224z3 <= 0
x122x129x1 - 1z122z129z1 <= 0
x122x129x3 - 1z122z129z3 <= 0
x122x32x3 - 1z122z32z3 <= 0
x122x0x1 <= 1
x122x0x3 <= 1
x50x200x2 - 1z50z200z2 <= 0
x50x25x1 - 1z50z25z1 <= 0
x50x0x1 <= 1
x50x0x2 <= 1
x184x25x1 - 1z184z25z1 <= 0
x184x0x1 <= 2
x128x0x3 <= 2
x200x0x2 <= 1
x200x0x3 <= 1
x224x32x3 - 1z224z32z3 <= 0
x224x0x3 <= 2
x129x32x3 - 1z129z32z3 <= 0
x129x0x1 <= 1
x129x0x3 <= 1
x32x0x2 <= 1
x32x0x3 <= 1
x25x0x1 <= 1
x25x0x3 <= 1

s23 - 6.00z141z23z1 >= 0
s23 - 6.00z14z23z1 >= 0
s96 - 6.00z141z96z1 >= 0
s96 - 6.00z14z96z1 >= 0
s96 - 6.00z197z96z2 >= 0
s180 - 6.00z141z180z1 >= 0
s180 - 6.00z14z180z1 >= 0
s54 - 6.00z141z54z1 >= 0
s54 - 6.00z14z54z1 >= 0
s73 - 6.00z197z73z2 >= 0
s111 - 6.00z141z111z1 >= 0
s111 - 6.00z14z111z1 >= 0
s111 - 6.00z197z111z2 >= 0
s111 - 6.00z96z111z1 >= 0
s111 - 6.00z96z111z2 >= 0
s111 - 6.00z180z111z1 >= 0
s225 - 6.00z194z225z3 >= 0
s232 - 6.00z141z232z1 >= 0
s232 - 6.00z14z232z1 >= 0
s232 - 6.00z61z232z3 >= 0
s232 - 6.00z96z232z1 >= 0
s232 - 6.00z180z232z1 >= 0
s232 - 6.00z180z232z3 >= 0
s88 - 6.00z141z88z1 >= 0
s88 - 6.00z14z88z1 >= 0
s88 - 6.00z96z88z1 >= 0
s88 - 6.00z180z88z1 >= 0
s88 - 6.00z54z88z1 >= 0
s178 - 6.00z141z178z1 >= 0
s178 - 6.00z14z178z1 >= 0
s178 - 6.00z197z178z2 >= 0
s178 - 6.00z96z178z1 >= 0
s178 - 6.00z96z178z2 >= 0
s178 - 6.00z180z178z1 >= 0
s178 - 6.00z54z178z1 >= 0
s178 - 6.00z73z178z2 >= 0
s178 - 6.00z111z178z1 >= 0
s178 - 6.00z111z178z2 >= 0
s178 - 6.00z232z178z1 >= 0
s26 - 6.00z141z26z1 >= 0
s26 - 6.00z14z26z1 >= 0
s26 - 6.00z96z26z1 >= 0
s26 - 6.00z180z26z1 >= 0
s26 - 6.00z54z26z1 >= 0
s26 - 6.00z111z26z1 >= 0
s26 - 6.00z88z26z1 >= 0
s64 - 6.00z141z64z1 >= 0
s64 - 6.00z14z64z1 >= 0
s64 - 6.00z96z64z1 >= 0
s64 - 6.00z180z64z1 >= 0
s64 - 6.00z54z64z1 >= 0
s64 - 6.00z111z64z1 >= 0
s64 - 6.00z88z64z1 >= 0
s64 - 6.00z26z64z1 >= 0
s82 - 6.00z141z82z1 >= 0
s82 - 6.00z14z82z1 >= 0
s82 - 6.00z197z82z2 >= 0
s82 - 6.00z96z82z1 >= 0
s82 - 6.00z96z82z2 >= 0
s82 - 6.00z180z82z1 >= 0
s82 - 6.00z54z82z1 >= 0
s82 - 6.00z73z82z2 >= 0
s82 - 6.00z111z82z1 >= 0
s82 - 6.00z111z82z2 >= 0
s82 - 6.00z232z82z1 >= 0
s82 - 6.00z88z82z1 >= 0
s82 - 6.00z178z82z1 >= 0
s82 - 6.00z178z82z2 >= 0
s264 - 6.00z197z264z2 >= 0
s264 - 6.00z96z264z2 >= 0
s264 - 6.00z73z264z2 >= 0
s264 - 6.00z111z264z2 >= 0
s122 - 6.00z141z122z1 >= 0
s122 - 6.00z14z122z1 >= 0
s122 - 6.00z183z122z3 >= 0
s122 - 6.00z131z122z1 >= 0
s50 - 6.00z141z50z1 >= 0
s50 - 6.00z14z50z1 >= 0
s50 - 6.00z183z50z2 >= 0
s50 - 6.00z197z50z2 >= 0
s50 - 6.00z131z50z1 >= 0
s50 - 6.00z261z50z2 >= 0
s50 - 6.00z96z50z1 >= 0
s50 - 6.00z96z50z2 >= 0
s50 - 6.00z180z50z1 >= 0
s50 - 6.00z54z50z1 >= 0
s50 - 6.00z73z50z2 >= 0
s50 - 6.00z111z50z1 >= 0
s50 - 6.00z111z50z2 >= 0
s50 - 6.00z232z50z1 >= 0
s50 - 6.00z88z50z1 >= 0
s50 - 6.00z178z50z1 >= 0
s50 - 6.00z178z50z2 >= 0
s184 - 6.00z141z184z1 >= 0
s184 - 6.00z14z184z1 >= 0
s184 - 6.00z131z184z1 >= 0
s184 - 6.00z96z184z1 >= 0
s184 - 6.00z180z184z1 >= 0
s184 - 6.00z54z184z1 >= 0
s184 - 6.00z111z184z1 >= 0
s184 - 6.00z232z184z1 >= 0
s184 - 6.00z88z184z1 >= 0
s184 - 6.00z178z184z1 >= 0
s184 - 6.00z26z184z1 >= 0
s184 - 6.00z64z184z1 >= 0
s184 - 6.00z82z184z1 >= 0
s128 - 6.00z183z128z3 >= 0
s128 - 6.00z61z128z3 >= 0
s128 - 6.00z180z128z3 >= 0
s128 - 6.00z194z128z3 >= 0
s128 - 6.00z54z128z3 >= 0
s128 - 6.00z225z128z3 >= 0
s128 - 6.00z232z128z3 >= 0
s200 - 6.00z183z200z2 >= 0
s200 - 6.00z183z200z3 >= 0
s200 - 6.00z197z200z2 >= 0
s200 - 6.00z261z200z2 >= 0
s200 - 6.00z206z200z2 >= 0
s200 - 6.00z61z200z3 >= 0
s200 - 6.00z96z200z2 >= 0
s200 - 6.00z109z200z3 >= 0
s200 - 6.00z180z200z3 >= 0
s200 - 6.00z194z200z3 >= 0
s200 - 6.00z54z200z3 >= 0
s200 - 6.00z73z200z2 >= 0
s200 - 6.00z111z200z2 >= 0
s200 - 6.00z225z200z3 >= 0
s200 - 6.00z232z200z3 >= 0
s200 - 6.00z178z200z2 >= 0
s200 - 6.00z82z200z2 >= 0
s200 - 6.00z264z200z2 >= 0
s200 - 6.00z50z200z2 >= 0
s224 - 6.00z183z224z3 >= 0
s224 - 6.00z122z224z3 >= 0
s129 - 6.00z141z129z1 >= 0
s129 - 6.00z14z129z1 >= 0
s129 - 6.00z183z129z3 >= 0
s129 - 6.00z131z129z1 >= 0
s129 - 6.00z122z129z1 >= 0
s129 - 6.00z122z129z3 >= 0
s32 - 6.00z183z32z2 >= 0
s32 - 6.00z183z32z3 >= 0
s32 - 6.00z197z32z2 >= 0
s32 - 6.00z261z32z2 >= 0
s32 - 6.00z61z32z3 >= 0
s32 - 6.00z96z32z2 >= 0
s32 - 6.00z180z32z3 >= 0
s32 - 6.00z194z32z3 >= 0
s32 - 6.00z122z32z3 >= 0
s32 - 6.00z224z32z3 >= 0
s32 - 6.00z129z32z3 >= 0
s25 - 6.00z141z25z1 >= 0
s25 - 6.00z14z25z1 >= 0
s25 - 6.00z183z25z3 >= 0
s25 - 6.00z131z25z1 >= 0
s25 - 6.00z61z25z3 >= 0
s25 - 6.00z96z25z1 >= 0
s25 - 6.00z180z25z1 >= 0
s25 - 6.00z180z25z3 >= 0
s25 - 6.00z194z25z3 >= 0
s25 - 6.00z54z25z1 >= 0
s25 - 6.00z54z25z3 >= 0
s25 - 6.00z111z25z1 >= 0
s25 - 6.00z225z25z3 >= 0
s25 - 6.00z232z25z1 >= 0
s25 - 6.00z232z25z3 >= 0
s25 - 6.00z88z25z1 >= 0
s25 - 6.00z178z25z1 >= 0
s25 - 6.00z26z25z1 >= 0
s25 - 6.00z64z25z1 >= 0
s25 - 6.00z82z25z1 >= 0
s25 - 6.00z50z25z1 >= 0
s25 - 6.00z184z25z1 >= 0

Bounds
s141 = 6.741022
s14 = 6.938989
s183 = 7.394744
s197 = 6.964372
s131 = 7.418161
s156 = 7.814114
s261 = 7.345768
s239 = 7.995859
s206 = 7.641153
s112 = 8.060859
s8 = 8.031058
s181 = 7.883717
s22 = 8.227373
s61 = 7.533667
7.530000 <= s23 <= 8.530000
7.570000 <= s96 <= 8.570000
7.570000 <= s109 <= 8.570000
7.570000 <= s180 <= 8.570000
7.590000 <= s194 <= 8.590000
7.600000 <= s54 <= 8.600000
7.600000 <= s73 <= 8.600000
7.620000 <= s111 <= 8.620000
7.630000 <= s225 <= 8.630000
7.630000 <= s232 <= 8.630000
7.660000 <= s88 <= 8.660000
7.700000 <= s178 <= 8.700000
7.720000 <= s26 <= 8.720000
7.740000 <= s64 <= 8.740000
7.740000 <= s82 <= 8.740000
7.740000 <= s264 <= 8.740000
7.790000 <= s122 <= 8.790000
7.830000 <= s50 <= 8.830000
7.870000 <= s184 <= 8.870000
7.950000 <= s128 <= 8.950000
7.950000 <= s200 <= 8.950000
7.950000 <= s224 <= 8.950000
7.980000 <= s129 <= 8.980000
8.040000 <= s32 <= 9.040000
8.050000 <= s25 <= 9.050000

General
x141x23x1 x141x96x1 x141x180x1 x141x54x1 x141x111x1 x141x232x1 x141x88x1 x141x178x1 x141x26x1 x141x64x1 x141x82x1 x141x122x1 x141x50x1 x141x184x1 x141x129x1 x141x25x1 
x14x23x1 x14x96x1 x14x180x1 x14x54x1 x14x111x1 x14x232x1 x14x88x1 x14x178x1 x14x26x1 x14x64x1 x14x82x1 x14x122x1 x14x50x1 x14x184x1 x14x129x1 x14x25x1 
x183x122x3 x183x50x2 x183x128x3 x183x200x2 x183x200x3 x183x224x3 x183x129x3 x183x32x2 x183x32x3 x183x25x3 
x197x96x2 x197x73x2 x197x111x2 x197x178x2 x197x82x2 x197x264x2 x197x50x2 x197x200x2 x197x32x2 
x131x122x1 x131x50x1 x131x184x1 x131x129x1 x131x25x1 

x261x50x2 x261x200x2 x261x32x2 

x206x200x2 




x61x232x3 x61x128x3 x61x200x3 x61x32x3 x61x25x3 
x23x0x1 
x96x111x1 x96x111x2 x96x232x1 x96x88x1 x96x178x1 x96x178x2 x96x26x1 x96x64x1 x96x82x1 x96x82x2 x96x264x2 x96x50x1 x96x50x2 x96x184x1 x96x200x2 x96x32x2 x96x25x1 x96x0x1 x96x0x2 
x109x200x3 x109x0x3 
x180x111x1 x180x232x1 x180x232x3 x180x88x1 x180x178x1 x180x26x1 x180x64x1 x180x82x1 x180x50x1 x180x184x1 x180x128x3 x180x200x3 x180x32x3 x180x25x1 x180x25x3 x180x0x1 x180x0x3 
x194x225x3 x194x128x3 x194x200x3 x194x32x3 x194x25x3 x194x0x3 
x54x88x1 x54x178x1 x54x26x1 x54x64x1 x54x82x1 x54x50x1 x54x184x1 x54x128x3 x54x200x3 x54x25x1 x54x25x3 x54x0x1 x54x0x3 
x73x178x2 x73x82x2 x73x264x2 x73x50x2 x73x200x2 x73x0x2 
x111x178x1 x111x178x2 x111x26x1 x111x64x1 x111x82x1 x111x82x2 x111x264x2 x111x50x1 x111x50x2 x111x184x1 x111x200x2 x111x25x1 x111x0x1 x111x0x2 
x225x128x3 x225x200x3 x225x25x3 x225x0x3 
x232x178x1 x232x82x1 x232x50x1 x232x184x1 x232x128x3 x232x200x3 x232x25x1 x232x25x3 x232x0x1 x232x0x3 
x88x26x1 x88x64x1 x88x82x1 x88x50x1 x88x184x1 x88x25x1 x88x0x1 
x178x82x1 x178x82x2 x178x50x1 x178x50x2 x178x184x1 x178x200x2 x178x25x1 x178x0x1 x178x0x2 
x26x64x1 x26x184x1 x26x25x1 x26x0x1 
x64x184x1 x64x25x1 x64x0x1 
x82x184x1 x82x200x2 x82x25x1 x82x0x1 x82x0x2 
x264x200x2 x264x0x2 
x122x224x3 x122x129x1 x122x129x3 x122x32x3 x122x0x1 x122x0x3 
x50x200x2 x50x25x1 x50x0x1 x50x0x2 
x184x25x1 x184x0x1 
x128x0x3 
x200x0x2 x200x0x3 
x224x32x3 x224x0x3 
x129x32x3 x129x0x1 x129x0x3 
x32x0x2 x32x0x3 
x25x0x1 x25x0x3 

Binaries
y23 y96 y109 y180 y194 y54 y73 y111 y225 y232 y88 y178 y26 y64 y82 y264 y122 y50 y184 y128 y200 y224 y129 y32 y25 
z141z23z1 z141z96z1 z141z180z1 z141z54z1 z141z111z1 z141z232z1 z141z88z1 z141z178z1 z141z26z1 z141z64z1 z141z82z1 z141z122z1 z141z50z1 z141z184z1 z141z129z1 z141z25z1 
z14z23z1 z14z96z1 z14z180z1 z14z54z1 z14z111z1 z14z232z1 z14z88z1 z14z178z1 z14z26z1 z14z64z1 z14z82z1 z14z122z1 z14z50z1 z14z184z1 z14z129z1 z14z25z1 
z183z122z3 z183z50z2 z183z128z3 z183z200z2 z183z200z3 z183z224z3 z183z129z3 z183z32z2 z183z32z3 z183z25z3 
z197z96z2 z197z73z2 z197z111z2 z197z178z2 z197z82z2 z197z264z2 z197z50z2 z197z200z2 z197z32z2 
z131z122z1 z131z50z1 z131z184z1 z131z129z1 z131z25z1 

z261z50z2 z261z200z2 z261z32z2 

z206z200z2 




z61z232z3 z61z128z3 z61z200z3 z61z32z3 z61z25z3 

z96z111z1 z96z111z2 z96z232z1 z96z88z1 z96z178z1 z96z178z2 z96z26z1 z96z64z1 z96z82z1 z96z82z2 z96z264z2 z96z50z1 z96z50z2 z96z184z1 z96z200z2 z96z32z2 z96z25z1 
z109z200z3 
z180z111z1 z180z232z1 z180z232z3 z180z88z1 z180z178z1 z180z26z1 z180z64z1 z180z82z1 z180z50z1 z180z184z1 z180z128z3 z180z200z3 z180z32z3 z180z25z1 z180z25z3 
z194z225z3 z194z128z3 z194z200z3 z194z32z3 z194z25z3 
z54z88z1 z54z178z1 z54z26z1 z54z64z1 z54z82z1 z54z50z1 z54z184z1 z54z128z3 z54z200z3 z54z25z1 z54z25z3 
z73z178z2 z73z82z2 z73z264z2 z73z50z2 z73z200z2 
z111z178z1 z111z178z2 z111z26z1 z111z64z1 z111z82z1 z111z82z2 z111z264z2 z111z50z1 z111z50z2 z111z184z1 z111z200z2 z111z25z1 
z225z128z3 z225z200z3 z225z25z3 
z232z178z1 z232z82z1 z232z50z1 z232z184z1 z232z128z3 z232z200z3 z232z25z1 z232z25z3 
z88z26z1 z88z64z1 z88z82z1 z88z50z1 z88z184z1 z88z25z1 
z178z82z1 z178z82z2 z178z50z1 z178z50z2 z178z184z1 z178z200z2 z178z25z1 
z26z64z1 z26z184z1 z26z25z1 
z64z184z1 z64z25z1 
z82z184z1 z82z200z2 z82z25z1 
z264z200z2 
z122z224z3 z122z129z1 z122z129z3 z122z32z3 
z50z200z2 z50z25z1 
z184z25z1 


z224z32z3 
z129z32z3 



End